p cnf 39 28
-1 7 8 9 10 13 14 25 -2 36 0 
-3 -4 36 0 
-5 6 26 32 36 0 
-6 5 26 32 36 0 
-7 1 8 9 10 13 14 25 36 0 
-8 1 7 9 10 13 14 25 36 0 
-9 1 7 8 10 13 14 25 36 0 
-10 1 7 8 9 13 14 25 36 0 
-11 12 15 20 21 22 24 36 0 
-12 11 15 20 21 22 24 36 0 
-13 1 7 8 9 10 14 25 36 0 
-14 1 7 8 9 10 13 25 36 0 
-15 11 12 20 21 22 24 36 0 
-16 -17 37 0 
-18 -19 38 0 
-20 11 12 15 21 22 24 -2 36 0 
-21 11 12 15 20 22 24 36 0 
-22 11 12 15 20 21 24 36 0 
-23 36 0 
-24 11 12 15 20 21 22 36 0 
-16 -25 1 7 8 9 10 13 14 -26 5 6 32 37 0 
-27 -28 -29 37 0 
-30 -4 36 0 
-31 36 0 
-32 5 6 26 39 0 
-33 36 0 
-34 -2 36 0 
-35 36 0 
